solution status: optimal solution found
objective value:                     147502.552336733
d11(0,0)                                            1 	(obj:0)
d11(2,5)                                            1 	(obj:0)
d11(3,7)                                            1 	(obj:0)
d11(3,8)                                            1 	(obj:0)
d11(3,9)                                            1 	(obj:0)
d11(3,10)                                           1 	(obj:0)
d11(3,11)                                           1 	(obj:0)
d11(3,12)                                           1 	(obj:0)
d11(3,13)                                           1 	(obj:0)
d11(3,14)                                           1 	(obj:0)
d12(1,2)                                            1 	(obj:0)
d12(2,4)                                            1 	(obj:0)
d12(2,6)                                            1 	(obj:0)
d21(3,7)                                            1 	(obj:0)
d21(3,9)                                            1 	(obj:0)
d21(3,11)                                           1 	(obj:0)
WB(2)                                3315.65537776224 	(obj:0)
y2(1,2)                              1385.48851144896 	(obj:0)
y2(2,4)                              1385.48851144895 	(obj:0)
y2(2,6)                              1385.48851144896 	(obj:0)
STE(1,1)                                        14490 	(obj:0)
STE(0,0)                                        15750 	(obj:0)
STE(1,2)                             15806.2140858765 	(obj:0)
STE(2,3)                                        13230 	(obj:0)
STE(2,4)                             14546.2140858765 	(obj:0)
STE(2,5)                             14546.2140858765 	(obj:0)
STE(2,6)                              15862.428171753 	(obj:0)
STE(3,7)                             4641.75010111092 	(obj:0)
STE(3,8)                             6299.99999999977 	(obj:0)
STE(3,9)                             5957.96418698743 	(obj:0)
STE(3,10)                            7616.21408587625 	(obj:0)
STE(3,11)                            5957.96418698744 	(obj:0)
STE(3,12)                            7616.21408587625 	(obj:0)
STE(3,13)                            7274.17827286395 	(obj:0)
STE(3,14)                            8932.42817175277 	(obj:0)
AVE(2)                               3315.65537776224 	(obj:0)
y1(3,7)                              6595.42490900017 	(obj:0)
y1(3,8)                               5103.0000000002 	(obj:0)
y1(3,9)                              6595.42490900017 	(obj:0)
y1(3,10)                             5103.00000000023 	(obj:0)
y1(3,11)                             6595.42490900017 	(obj:0)
y1(3,12)                             5103.00000000023 	(obj:0)
y1(3,13)                             6595.42490900017 	(obj:0)
y1(3,14)                             5103.00000000023 	(obj:0)
AVE(3)                               3315.65799770399 	(obj:0)
WB(1)                                3248.33172520918 	(obj:0)
WG(3)                                3315.65799770399 	(obj:10)
BG(1)                                2673.40993877551 	(obj:10)
BG(2)                                2673.40993877551 	(obj:10)
BG(3)                                6087.77735841867 	(obj:10)
AVE(1)                               3248.33172520918 	(obj:0)
